problem_generation/data/GISP/train/er_n=60_m=1051_p=0.60_SET2_setparam=100.00_alpha=0.50_520.lp
maximize
OBJ:100x0 + 100x1 + 100x2 + 100x3 + 100x4 + 100x5 + 100x6 + 100x7 + 100x8 + 100x9 + 100x10 + 100x11 + 100x12 + 100x13 + 100x14 + 100x15 + 100x16 + 100x17 + 100x18 + 100x19 + 100x20 + 100x21 + 100x22 + 100x23 + 100x24 + 100x25 + 100x26 + 100x27 + 100x28 + 100x29 + 100x30 + 100x31 + 100x32 + 100x33 + 100x34 + 100x35 + 100x36 + 100x37 + 100x38 + 100x39 + 100x40 + 100x41 + 100x42 + 100x43 + 100x44 + 100x45 + 100x46 + 100x47 + 100x48 + 100x49 + 100x50 + 100x51 + 100x52 + 100x53 + 100x54 + 100x55 + 100x56 + 100x57 + 100x58 + 100x59 - y15_30 - y26_30 - y15_39 - y29_32 - y0_5 - y29_41 - y8_18 - y48_54 - y6_48 - y11_14 - y29_50 - y40_50 - y41_42 - y33_38 - y25_34 - y44_47 - y33_56 - y14_15 - y22_28 - y3_24 - y15_16 - y18_21 - y36_57 - y18_30 - y9_49 - y48_49 - y0_9 - y6_43 - y21_41 - y40_54 - y10_40 - y2_36 - y25_38 - y10_58 - y3_19 - y14_19 - y3_28 - y55_56 - y17_39 - y47_52 - y9_44 - y17_57 - y29_31 - y21_27 - y6_38 - y29_40 - y6_47 - y29_49 - y40_49 - y40_58 - y10_17 - y10_26 - y10_35 - y25_33 - y2_40 - y13_55 - y14_32 - y17_34 - y28_34 - y5_41 - y47_56 - y9_39 - y5_50 - y9_48 - y21_22 - y29_35 - y40_44 - y6_51 - y39_48 - y2_17 - y54_55 - y2_26 - y10_39 - y13_32 - y43_45 - y24_41 - y3_18 - y16_37 - y32_54 - y13_50 - y16_46 - y1_57 - y35_59 - y17_38 - y17_47 - y28_47 - y17_56 - y6_19 - y42_58 - y10_16 - y39_52 - y2_12 - y2_21 - y20_57 - y12_53 - y13_27 - y1_34 - y16_32 - y32_58 - y43_58 - y1_52 - y35_54 - y9_11 - y16_59 - y17_24 - y17_33 - y28_33 - y5_40 - y28_42 - y9_38 - y5_49 - y6_23 - y50_57 - y6_32 - y8_51 - y11_56 - y31_34 - y10_11 - y4_53 - y1_29 - y13_40 - y43_53 - y16_36 - y1_47 - y5_8 - y35_58 - y38_51 - y49_51 - y28_37 - y9_33 - y6_9 - y42_48 - y19_55 - y42_57 - y11_51 - y12_25 - y12_34 - y31_47 - y4_30 - y12_43 - y4_39 - y12_52 - y13_17 - y4_57 - y1_33 - y13_35 - y16_31 - y1_42 - y35_44 - y38_46 - y17_23 - y18_58 - y8_32 - y27_45 - y27_54 - y0_37 - y8_50 - y30_50 - y11_46 - y20_24 - y12_20 - y31_33 - y12_29 - y23_29 - y12_38 - y31_51 - y12_56 - y1_19 - y23_56 - y13_30 - y16_26 - y1_46 - y5_7 - y15_48 - y7_44 - y15_57 - y38_59 - y49_59 - y19_45 - y27_58 - y0_41 - y11_41 - y11_50 - y11_59 - y23_24 - y12_33 - y23_33 - y23_42 - y4_38 - y34_39 - y37_44 - y16_21 - y15_34 - y38_45 - y46_58 - y26_52 - y7_48 - y18_57 - y19_22 - y27_35 - y27_44 - y8_40 - y19_40 - y30_49 - y41_46 - y30_58 - y12_19 - y20_32 - y33_51 - y12_37 - y23_37 - y1_9 - y1_18 - y34_52 - y45_52 - y37_48 - y22_59 - y3_55 - y14_55 - y15_20 - y37_57 - y26_29 - y7_25 - y38_40 - y7_34 - y18_34 - y15_47 - y38_49 - y7_43 - y18_52 - y11_13 - y0_22 - y19_35 - y30_44 - y12_14 - y41_50 - y33_46 - y44_46 - y12_23 - y10_53 - y2_58 - y3_32 - y45_47 - y34_56 - y37_52 - y18_20 - y26_33 - y15_51 - y7_47 - y8_12 - y18_56 - y19_21 - y48_57 - y21_58 - y0_35 - y41_45 - y4_5 - y33_41 - y25_37 - y25_46 - y25_55 - y22_49 - y37_47 - y3_54 - y14_54 - y15_19 - y15_28 - y26_28 - y18_33 - y18_42 - y29_48 - y40_48 - y6_55 - y40_57 - y33_36 - y4_9 - y41_58 - y10_52 - y2_48 - y3_13 - y25_50 - y2_57 - y34_37 - y3_31 - y22_44 - y7_10 - y7_19 - y18_28 - y7_37 - y8_11 - y48_56 - y0_16 - y6_50 - y29_52 - y40_52 - y21_57 - y10_20 - y10_29 - y25_27 - y33_40 - y10_47 - y51_57 - y3_17 - y14_17 - y32_53 - y14_26 - y13_58 - y3_35 - y3_44 - y36_41 - y15_18 - y47_50 - y28_46 - y18_23 - y0_2 - y29_38 - y48_51 - y21_43 - y40_56 - y2_20 - y10_33 - y33_44 - y2_47 - y22_25 - y3_21 - y32_57 - y16_58 - y28_32 - y7_9 - y36_45 - y17_41 - y28_41 - y5_48 - y28_59 - y6_31 - y6_49 - y29_51 - y6_58 - y39_55 - y2_15 - y10_28 - y10_37 - y3_16 - y13_48 - y24_48 - y35_48 - y35_57 - y17_18 - y17_27 - y36_40 - y28_36 - y47_58 - y28_54 - y6_17 - y9_50 - y21_24 - y6_35 - y2_19 - y31_55 - y4_56 - y13_34 - y13_43 - y35_43 - y24_52 - y35_52 - y5_20 - y17_22 - y5_29 - y28_40 - y5_47 - y17_49 - y9_45 - y5_56 - y8_58 - y19_58 - y31_41 - y2_23 - y12_55 - y13_20 - y4_51 - y24_29 - y32_42 - y51_55 - y13_47 - y13_56 - y24_56 - y5_15 - y9_22 - y5_33 - y17_35 - y9_31 - y27_48 - y6_25 - y21_23 - y27_57 - y0_49 - y20_36 - y31_36 - y23_41 - y20_54 - y12_50 - y23_59 - y24_33 - y43_46 - y24_42 - y35_42 - y1_49 - y24_51 - y46_48 - y1_58 - y38_44 - y9_17 - y27_34 - y6_11 - y27_43 - y6_20 - y8_57 - y42_59 - y12_18 - y39_44 - y2_4 - y20_49 - y4_32 - y53_55 - y4_59 - y24_37 - y16_33 - y5_14 - y15_46 - y38_48 - y7_51 - y8_25 - y27_38 - y8_34 - y30_34 - y19_43 - y27_56 - y42_54 - y12_13 - y20_26 - y0_57 - y31_35 - y4_18 - y12_31 - y12_40 - y23_49 - y1_12 - y34_46 - y34_55 - y1_30 - y3_58 - y5_9 - y46_56 - y15_50 - y38_52 - y18_55 - y19_20 - y19_29 - y27_42 - y0_25 - y8_38 - y30_38 - y8_47 - y8_56 - y0_52 - y41_53 - y20_30 - y34_41 - y1_16 - y22_57 - y26_36 - y7_32 - y49_56 - y18_59 - y27_37 - y0_29 - y19_51 - y30_51 - y41_48 - y4_8 - y12_21 - y52_57 - y22_34 - y22_43 - y53_58 - y3_39 - y34_54 - y14_48 - y37_50 - y3_57 - y14_57 - y18_27 - y38_42 - y26_49 - y7_45 - y18_45 - y0_6 - y48_55 - y0_15 - y19_28 - y11_33 - y12_16 - y10_46 - y44_48 - y4_21 - y44_57 - y14_34 - y37_45 - y3_52 - y14_52 - y15_17 - y26_35 - y7_40 - y8_14 - y40_46 - y6_53 - y29_55 - y40_55 - y0_28 - y33_43 - y25_39 - y10_50 - y44_52 - y25_48 - y3_20 - y37_40 - y3_47 - y7_8 - y14_56
 Subject to
C1: x0+x2-y0_2 <=1 
C2: x0+x4 <=1 
C3: x0+x5-y0_5 <=1 
C4: x0+x6-y0_6 <=1 
C5: x0+x9-y0_9 <=1 
C6: x0+x10 <=1 
C7: x0+x14 <=1 
C8: x0+x15-y0_15 <=1 
C9: x0+x16-y0_16 <=1 
C10: x0+x17 <=1 
C11: x0+x18 <=1 
C12: x0+x19 <=1 
C13: x0+x22-y0_22 <=1 
C14: x0+x25-y0_25 <=1 
C15: x0+x28-y0_28 <=1 
C16: x0+x29-y0_29 <=1 
C17: x0+x35-y0_35 <=1 
C18: x0+x37-y0_37 <=1 
C19: x0+x38 <=1 
C20: x0+x40 <=1 
C21: x0+x41-y0_41 <=1 
C22: x0+x42 <=1 
C23: x0+x46 <=1 
C24: x0+x49-y0_49 <=1 
C25: x0+x50 <=1 
C26: x0+x51 <=1 
C27: x0+x52-y0_52 <=1 
C28: x0+x57-y0_57 <=1 
C29: x0+x58 <=1 
C30: x0+x59 <=1 
C31: x1+x2 <=1 
C32: x1+x3 <=1 
C33: x1+x6 <=1 
C34: x1+x9-y1_9 <=1 
C35: x1+x10 <=1 
C36: x1+x12-y1_12 <=1 
C37: x1+x16-y1_16 <=1 
C38: x1+x17 <=1 
C39: x1+x18-y1_18 <=1 
C40: x1+x19-y1_19 <=1 
C41: x1+x20 <=1 
C42: x1+x21 <=1 
C43: x1+x22 <=1 
C44: x1+x23 <=1 
C45: x1+x25 <=1 
C46: x1+x26 <=1 
C47: x1+x28 <=1 
C48: x1+x29-y1_29 <=1 
C49: x1+x30-y1_30 <=1 
C50: x1+x33-y1_33 <=1 
C51: x1+x34-y1_34 <=1 
C52: x1+x35 <=1 
C53: x1+x36 <=1 
C54: x1+x40 <=1 
C55: x1+x41 <=1 
C56: x1+x42-y1_42 <=1 
C57: x1+x46-y1_46 <=1 
C58: x1+x47-y1_47 <=1 
C59: x1+x48 <=1 
C60: x1+x49-y1_49 <=1 
C61: x1+x50 <=1 
C62: x1+x51 <=1 
C63: x1+x52-y1_52 <=1 
C64: x1+x54 <=1 
C65: x1+x56 <=1 
C66: x1+x57-y1_57 <=1 
C67: x1+x58-y1_58 <=1 
C68: x2+x3 <=1 
C69: x2+x4-y2_4 <=1 
C70: x2+x6 <=1 
C71: x2+x10 <=1 
C72: x2+x11 <=1 
C73: x2+x12-y2_12 <=1 
C74: x2+x15-y2_15 <=1 
C75: x2+x17-y2_17 <=1 
C76: x2+x18 <=1 
C77: x2+x19-y2_19 <=1 
C78: x2+x20-y2_20 <=1 
C79: x2+x21-y2_21 <=1 
C80: x2+x23-y2_23 <=1 
C81: x2+x24 <=1 
C82: x2+x26-y2_26 <=1 
C83: x2+x27 <=1 
C84: x2+x34 <=1 
C85: x2+x36-y2_36 <=1 
C86: x2+x39 <=1 
C87: x2+x40-y2_40 <=1 
C88: x2+x41 <=1 
C89: x2+x46 <=1 
C90: x2+x47-y2_47 <=1 
C91: x2+x48-y2_48 <=1 
C92: x2+x49 <=1 
C93: x2+x50 <=1 
C94: x2+x51 <=1 
C95: x2+x52 <=1 
C96: x2+x53 <=1 
C97: x2+x56 <=1 
C98: x2+x57-y2_57 <=1 
C99: x2+x58-y2_58 <=1 
C100: x3+x5 <=1 
C101: x3+x7 <=1 
C102: x3+x12 <=1 
C103: x3+x13-y3_13 <=1 
C104: x3+x16-y3_16 <=1 
C105: x3+x17-y3_17 <=1 
C106: x3+x18-y3_18 <=1 
C107: x3+x19-y3_19 <=1 
C108: x3+x20-y3_20 <=1 
C109: x3+x21-y3_21 <=1 
C110: x3+x22 <=1 
C111: x3+x24-y3_24 <=1 
C112: x3+x27 <=1 
C113: x3+x28-y3_28 <=1 
C114: x3+x31-y3_31 <=1 
C115: x3+x32-y3_32 <=1 
C116: x3+x34 <=1 
C117: x3+x35-y3_35 <=1 
C118: x3+x37 <=1 
C119: x3+x38 <=1 
C120: x3+x39-y3_39 <=1 
C121: x3+x40 <=1 
C122: x3+x41 <=1 
C123: x3+x42 <=1 
C124: x3+x44-y3_44 <=1 
C125: x3+x47-y3_47 <=1 
C126: x3+x48 <=1 
C127: x3+x49 <=1 
C128: x3+x51 <=1 
C129: x3+x52-y3_52 <=1 
C130: x3+x53 <=1 
C131: x3+x54-y3_54 <=1 
C132: x3+x55-y3_55 <=1 
C133: x3+x57-y3_57 <=1 
C134: x3+x58-y3_58 <=1 
C135: x4+x5-y4_5 <=1 
C136: x4+x7 <=1 
C137: x4+x8-y4_8 <=1 
C138: x4+x9-y4_9 <=1 
C139: x4+x15 <=1 
C140: x4+x18-y4_18 <=1 
C141: x4+x21-y4_21 <=1 
C142: x4+x22 <=1 
C143: x4+x24 <=1 
C144: x4+x25 <=1 
C145: x4+x26 <=1 
C146: x4+x28 <=1 
C147: x4+x29 <=1 
C148: x4+x30-y4_30 <=1 
C149: x4+x31 <=1 
C150: x4+x32-y4_32 <=1 
C151: x4+x34 <=1 
C152: x4+x36 <=1 
C153: x4+x38-y4_38 <=1 
C154: x4+x39-y4_39 <=1 
C155: x4+x40 <=1 
C156: x4+x41 <=1 
C157: x4+x42 <=1 
C158: x4+x44 <=1 
C159: x4+x50 <=1 
C160: x4+x51-y4_51 <=1 
C161: x4+x53-y4_53 <=1 
C162: x4+x56-y4_56 <=1 
C163: x4+x57-y4_57 <=1 
C164: x4+x59-y4_59 <=1 
C165: x5+x7-y5_7 <=1 
C166: x5+x8-y5_8 <=1 
C167: x5+x9-y5_9 <=1 
C168: x5+x12 <=1 
C169: x5+x13 <=1 
C170: x5+x14-y5_14 <=1 
C171: x5+x15-y5_15 <=1 
C172: x5+x20-y5_20 <=1 
C173: x5+x21 <=1 
C174: x5+x27 <=1 
C175: x5+x29-y5_29 <=1 
C176: x5+x32 <=1 
C177: x5+x33-y5_33 <=1 
C178: x5+x35 <=1 
C179: x5+x37 <=1 
C180: x5+x38 <=1 
C181: x5+x39 <=1 
C182: x5+x40-y5_40 <=1 
C183: x5+x41-y5_41 <=1 
C184: x5+x43 <=1 
C185: x5+x44 <=1 
C186: x5+x45 <=1 
C187: x5+x46 <=1 
C188: x5+x47-y5_47 <=1 
C189: x5+x48-y5_48 <=1 
C190: x5+x49-y5_49 <=1 
C191: x5+x50-y5_50 <=1 
C192: x5+x51 <=1 
C193: x5+x52 <=1 
C194: x5+x56-y5_56 <=1 
C195: x5+x57 <=1 
C196: x5+x58 <=1 
C197: x6+x9-y6_9 <=1 
C198: x6+x11-y6_11 <=1 
C199: x6+x12 <=1 
C200: x6+x13 <=1 
C201: x6+x14 <=1 
C202: x6+x17-y6_17 <=1 
C203: x6+x18 <=1 
C204: x6+x19-y6_19 <=1 
C205: x6+x20-y6_20 <=1 
C206: x6+x21 <=1 
C207: x6+x23-y6_23 <=1 
C208: x6+x25-y6_25 <=1 
C209: x6+x26 <=1 
C210: x6+x31-y6_31 <=1 
C211: x6+x32-y6_32 <=1 
C212: x6+x35-y6_35 <=1 
C213: x6+x36 <=1 
C214: x6+x38-y6_38 <=1 
C215: x6+x39 <=1 
C216: x6+x40 <=1 
C217: x6+x43-y6_43 <=1 
C218: x6+x44 <=1 
C219: x6+x45 <=1 
C220: x6+x46 <=1 
C221: x6+x47-y6_47 <=1 
C222: x6+x48-y6_48 <=1 
C223: x6+x49-y6_49 <=1 
C224: x6+x50-y6_50 <=1 
C225: x6+x51-y6_51 <=1 
C226: x6+x52 <=1 
C227: x6+x53-y6_53 <=1 
C228: x6+x55-y6_55 <=1 
C229: x6+x57 <=1 
C230: x6+x58-y6_58 <=1 
C231: x6+x59 <=1 
C232: x7+x8-y7_8 <=1 
C233: x7+x9-y7_9 <=1 
C234: x7+x10-y7_10 <=1 
C235: x7+x11 <=1 
C236: x7+x12 <=1 
C237: x7+x16 <=1 
C238: x7+x17 <=1 
C239: x7+x18 <=1 
C240: x7+x19-y7_19 <=1 
C241: x7+x20 <=1 
C242: x7+x22 <=1 
C243: x7+x25-y7_25 <=1 
C244: x7+x29 <=1 
C245: x7+x31 <=1 
C246: x7+x32-y7_32 <=1 
C247: x7+x34-y7_34 <=1 
C248: x7+x36 <=1 
C249: x7+x37-y7_37 <=1 
C250: x7+x40-y7_40 <=1 
C251: x7+x41 <=1 
C252: x7+x42 <=1 
C253: x7+x43-y7_43 <=1 
C254: x7+x44-y7_44 <=1 
C255: x7+x45-y7_45 <=1 
C256: x7+x47-y7_47 <=1 
C257: x7+x48-y7_48 <=1 
C258: x7+x49 <=1 
C259: x7+x51-y7_51 <=1 
C260: x7+x52 <=1 
C261: x7+x54 <=1 
C262: x7+x59 <=1 
C263: x8+x11-y8_11 <=1 
C264: x8+x12-y8_12 <=1 
C265: x8+x13 <=1 
C266: x8+x14-y8_14 <=1 
C267: x8+x18-y8_18 <=1 
C268: x8+x22 <=1 
C269: x8+x25-y8_25 <=1 
C270: x8+x26 <=1 
C271: x8+x27 <=1 
C272: x8+x28 <=1 
C273: x8+x29 <=1 
C274: x8+x30 <=1 
C275: x8+x31 <=1 
C276: x8+x32-y8_32 <=1 
C277: x8+x33 <=1 
C278: x8+x34-y8_34 <=1 
C279: x8+x35 <=1 
C280: x8+x36 <=1 
C281: x8+x38-y8_38 <=1 
C282: x8+x40-y8_40 <=1 
C283: x8+x43 <=1 
C284: x8+x47-y8_47 <=1 
C285: x8+x48 <=1 
C286: x8+x49 <=1 
C287: x8+x50-y8_50 <=1 
C288: x8+x51-y8_51 <=1 
C289: x8+x53 <=1 
C290: x8+x55 <=1 
C291: x8+x56-y8_56 <=1 
C292: x8+x57-y8_57 <=1 
C293: x8+x58-y8_58 <=1 
C294: x9+x11-y9_11 <=1 
C295: x9+x12 <=1 
C296: x9+x13 <=1 
C297: x9+x14 <=1 
C298: x9+x16 <=1 
C299: x9+x17-y9_17 <=1 
C300: x9+x22-y9_22 <=1 
C301: x9+x23 <=1 
C302: x9+x24 <=1 
C303: x9+x27 <=1 
C304: x9+x28 <=1 
C305: x9+x29 <=1 
C306: x9+x31-y9_31 <=1 
C307: x9+x32 <=1 
C308: x9+x33-y9_33 <=1 
C309: x9+x34 <=1 
C310: x9+x37 <=1 
C311: x9+x38-y9_38 <=1 
C312: x9+x39-y9_39 <=1 
C313: x9+x40 <=1 
C314: x9+x41 <=1 
C315: x9+x42 <=1 
C316: x9+x44-y9_44 <=1 
C317: x9+x45-y9_45 <=1 
C318: x9+x48-y9_48 <=1 
C319: x9+x49-y9_49 <=1 
C320: x9+x50-y9_50 <=1 
C321: x9+x53 <=1 
C322: x9+x54 <=1 
C323: x9+x56 <=1 
C324: x9+x59 <=1 
C325: x10+x11-y10_11 <=1 
C326: x10+x12 <=1 
C327: x10+x14 <=1 
C328: x10+x16-y10_16 <=1 
C329: x10+x17-y10_17 <=1 
C330: x10+x19 <=1 
C331: x10+x20-y10_20 <=1 
C332: x10+x22 <=1 
C333: x10+x23 <=1 
C334: x10+x25 <=1 
C335: x10+x26-y10_26 <=1 
C336: x10+x28-y10_28 <=1 
C337: x10+x29-y10_29 <=1 
C338: x10+x30 <=1 
C339: x10+x31 <=1 
C340: x10+x32 <=1 
C341: x10+x33-y10_33 <=1 
C342: x10+x34 <=1 
C343: x10+x35-y10_35 <=1 
C344: x10+x37-y10_37 <=1 
C345: x10+x39-y10_39 <=1 
C346: x10+x40-y10_40 <=1 
C347: x10+x41 <=1 
C348: x10+x45 <=1 
C349: x10+x46-y10_46 <=1 
C350: x10+x47-y10_47 <=1 
C351: x10+x50-y10_50 <=1 
C352: x10+x52-y10_52 <=1 
C353: x10+x53-y10_53 <=1 
C354: x10+x55 <=1 
C355: x10+x58-y10_58 <=1 
C356: x11+x12 <=1 
C357: x11+x13-y11_13 <=1 
C358: x11+x14-y11_14 <=1 
C359: x11+x15 <=1 
C360: x11+x18 <=1 
C361: x11+x24 <=1 
C362: x11+x27 <=1 
C363: x11+x29 <=1 
C364: x11+x30 <=1 
C365: x11+x31 <=1 
C366: x11+x32 <=1 
C367: x11+x33-y11_33 <=1 
C368: x11+x41-y11_41 <=1 
C369: x11+x42 <=1 
C370: x11+x46-y11_46 <=1 
C371: x11+x50-y11_50 <=1 
C372: x11+x51-y11_51 <=1 
C373: x11+x52 <=1 
C374: x11+x54 <=1 
C375: x11+x56-y11_56 <=1 
C376: x11+x59-y11_59 <=1 
C377: x12+x13-y12_13 <=1 
C378: x12+x14-y12_14 <=1 
C379: x12+x16-y12_16 <=1 
C380: x12+x18-y12_18 <=1 
C381: x12+x19-y12_19 <=1 
C382: x12+x20-y12_20 <=1 
C383: x12+x21-y12_21 <=1 
C384: x12+x23-y12_23 <=1 
C385: x12+x25-y12_25 <=1 
C386: x12+x27 <=1 
C387: x12+x29-y12_29 <=1 
C388: x12+x30 <=1 
C389: x12+x31-y12_31 <=1 
C390: x12+x33-y12_33 <=1 
C391: x12+x34-y12_34 <=1 
C392: x12+x37-y12_37 <=1 
C393: x12+x38-y12_38 <=1 
C394: x12+x40-y12_40 <=1 
C395: x12+x42 <=1 
C396: x12+x43-y12_43 <=1 
C397: x12+x44 <=1 
C398: x12+x46 <=1 
C399: x12+x47 <=1 
C400: x12+x50-y12_50 <=1 
C401: x12+x52-y12_52 <=1 
C402: x12+x53-y12_53 <=1 
C403: x12+x55-y12_55 <=1 
C404: x12+x56-y12_56 <=1 
C405: x13+x14 <=1 
C406: x13+x17-y13_17 <=1 
C407: x13+x18 <=1 
C408: x13+x19 <=1 
C409: x13+x20-y13_20 <=1 
C410: x13+x21 <=1 
C411: x13+x23 <=1 
C412: x13+x24 <=1 
C413: x13+x25 <=1 
C414: x13+x26 <=1 
C415: x13+x27-y13_27 <=1 
C416: x13+x30-y13_30 <=1 
C417: x13+x31 <=1 
C418: x13+x32-y13_32 <=1 
C419: x13+x33 <=1 
C420: x13+x34-y13_34 <=1 
C421: x13+x35-y13_35 <=1 
C422: x13+x37 <=1 
C423: x13+x39 <=1 
C424: x13+x40-y13_40 <=1 
C425: x13+x43-y13_43 <=1 
C426: x13+x46 <=1 
C427: x13+x47-y13_47 <=1 
C428: x13+x48-y13_48 <=1 
C429: x13+x50-y13_50 <=1 
C430: x13+x54 <=1 
C431: x13+x55-y13_55 <=1 
C432: x13+x56-y13_56 <=1 
C433: x13+x58-y13_58 <=1 
C434: x13+x59 <=1 
C435: x14+x15-y14_15 <=1 
C436: x14+x17-y14_17 <=1 
C437: x14+x18 <=1 
C438: x14+x19-y14_19 <=1 
C439: x14+x20 <=1 
C440: x14+x21 <=1 
C441: x14+x24 <=1 
C442: x14+x25 <=1 
C443: x14+x26-y14_26 <=1 
C444: x14+x27 <=1 
C445: x14+x31 <=1 
C446: x14+x32-y14_32 <=1 
C447: x14+x33 <=1 
C448: x14+x34-y14_34 <=1 
C449: x14+x35 <=1 
C450: x14+x37 <=1 
C451: x14+x38 <=1 
C452: x14+x39 <=1 
C453: x14+x40 <=1 
C454: x14+x42 <=1 
C455: x14+x43 <=1 
C456: x14+x46 <=1 
C457: x14+x48-y14_48 <=1 
C458: x14+x49 <=1 
C459: x14+x50 <=1 
C460: x14+x52-y14_52 <=1 
C461: x14+x54-y14_54 <=1 
C462: x14+x55-y14_55 <=1 
C463: x14+x56-y14_56 <=1 
C464: x14+x57-y14_57 <=1 
C465: x15+x16-y15_16 <=1 
C466: x15+x17-y15_17 <=1 
C467: x15+x18-y15_18 <=1 
C468: x15+x19-y15_19 <=1 
C469: x15+x20-y15_20 <=1 
C470: x15+x21 <=1 
C471: x15+x28-y15_28 <=1 
C472: x15+x29 <=1 
C473: x15+x30-y15_30 <=1 
C474: x15+x31 <=1 
C475: x15+x34-y15_34 <=1 
C476: x15+x37 <=1 
C477: x15+x38 <=1 
C478: x15+x39-y15_39 <=1 
C479: x15+x42 <=1 
C480: x15+x44 <=1 
C481: x15+x45 <=1 
C482: x15+x46-y15_46 <=1 
C483: x15+x47-y15_47 <=1 
C484: x15+x48-y15_48 <=1 
C485: x15+x50-y15_50 <=1 
C486: x15+x51-y15_51 <=1 
C487: x15+x54 <=1 
C488: x15+x57-y15_57 <=1 
C489: x16+x20 <=1 
C490: x16+x21-y16_21 <=1 
C491: x16+x22 <=1 
C492: x16+x26-y16_26 <=1 
C493: x16+x27 <=1 
C494: x16+x28 <=1 
C495: x16+x30 <=1 
C496: x16+x31-y16_31 <=1 
C497: x16+x32-y16_32 <=1 
C498: x16+x33-y16_33 <=1 
C499: x16+x34 <=1 
C500: x16+x35 <=1 
C501: x16+x36-y16_36 <=1 
C502: x16+x37-y16_37 <=1 
C503: x16+x38 <=1 
C504: x16+x39 <=1 
C505: x16+x40 <=1 
C506: x16+x43 <=1 
C507: x16+x45 <=1 
C508: x16+x46-y16_46 <=1 
C509: x16+x48 <=1 
C510: x16+x51 <=1 
C511: x16+x57 <=1 
C512: x16+x58-y16_58 <=1 
C513: x16+x59-y16_59 <=1 
C514: x17+x18-y17_18 <=1 
C515: x17+x21 <=1 
C516: x17+x22-y17_22 <=1 
C517: x17+x23-y17_23 <=1 
C518: x17+x24-y17_24 <=1 
C519: x17+x27-y17_27 <=1 
C520: x17+x30 <=1 
C521: x17+x32 <=1 
C522: x17+x33-y17_33 <=1 
C523: x17+x34-y17_34 <=1 
C524: x17+x35-y17_35 <=1 
C525: x17+x38-y17_38 <=1 
C526: x17+x39-y17_39 <=1 
C527: x17+x41-y17_41 <=1 
C528: x17+x46 <=1 
C529: x17+x47-y17_47 <=1 
C530: x17+x49-y17_49 <=1 
C531: x17+x52 <=1 
C532: x17+x53 <=1 
C533: x17+x55 <=1 
C534: x17+x56-y17_56 <=1 
C535: x17+x57-y17_57 <=1 
C536: x17+x58 <=1 
C537: x18+x19 <=1 
C538: x18+x20-y18_20 <=1 
C539: x18+x21-y18_21 <=1 
C540: x18+x22 <=1 
C541: x18+x23-y18_23 <=1 
C542: x18+x24 <=1 
C543: x18+x25 <=1 
C544: x18+x26 <=1 
C545: x18+x27-y18_27 <=1 
C546: x18+x28-y18_28 <=1 
C547: x18+x29 <=1 
C548: x18+x30-y18_30 <=1 
C549: x18+x31 <=1 
C550: x18+x33-y18_33 <=1 
C551: x18+x34-y18_34 <=1 
C552: x18+x36 <=1 
C553: x18+x37 <=1 
C554: x18+x39 <=1 
C555: x18+x41 <=1 
C556: x18+x42-y18_42 <=1 
C557: x18+x45-y18_45 <=1 
C558: x18+x47 <=1 
C559: x18+x48 <=1 
C560: x18+x52-y18_52 <=1 
C561: x18+x54 <=1 
C562: x18+x55-y18_55 <=1 
C563: x18+x56-y18_56 <=1 
C564: x18+x57-y18_57 <=1 
C565: x18+x58-y18_58 <=1 
C566: x18+x59-y18_59 <=1 
C567: x19+x20-y19_20 <=1 
C568: x19+x21-y19_21 <=1 
C569: x19+x22-y19_22 <=1 
C570: x19+x23 <=1 
C571: x19+x24 <=1 
C572: x19+x26 <=1 
C573: x19+x27 <=1 
C574: x19+x28-y19_28 <=1 
C575: x19+x29-y19_29 <=1 
C576: x19+x31 <=1 
C577: x19+x32 <=1 
C578: x19+x34 <=1 
C579: x19+x35-y19_35 <=1 
C580: x19+x37 <=1 
C581: x19+x40-y19_40 <=1 
C582: x19+x41 <=1 
C583: x19+x42 <=1 
C584: x19+x43-y19_43 <=1 
C585: x19+x44 <=1 
C586: x19+x45-y19_45 <=1 
C587: x19+x51-y19_51 <=1 
C588: x19+x54 <=1 
C589: x19+x55-y19_55 <=1 
C590: x19+x56 <=1 
C591: x19+x57 <=1 
C592: x19+x58-y19_58 <=1 
C593: x20+x21 <=1 
C594: x20+x24-y20_24 <=1 
C595: x20+x26-y20_26 <=1 
C596: x20+x30-y20_30 <=1 
C597: x20+x32-y20_32 <=1 
C598: x20+x33 <=1 
C599: x20+x35 <=1 
C600: x20+x36-y20_36 <=1 
C601: x20+x40 <=1 
C602: x20+x42 <=1 
C603: x20+x44 <=1 
C604: x20+x45 <=1 
C605: x20+x47 <=1 
C606: x20+x49-y20_49 <=1 
C607: x20+x52 <=1 
C608: x20+x53 <=1 
C609: x20+x54-y20_54 <=1 
C610: x20+x55 <=1 
C611: x20+x57-y20_57 <=1 
C612: x21+x22-y21_22 <=1 
C613: x21+x23-y21_23 <=1 
C614: x21+x24-y21_24 <=1 
C615: x21+x27-y21_27 <=1 
C616: x21+x29 <=1 
C617: x21+x30 <=1 
C618: x21+x31 <=1 
C619: x21+x34 <=1 
C620: x21+x35 <=1 
C621: x21+x37 <=1 
C622: x21+x39 <=1 
C623: x21+x41-y21_41 <=1 
C624: x21+x43-y21_43 <=1 
C625: x21+x44 <=1 
C626: x21+x45 <=1 
C627: x21+x46 <=1 
C628: x21+x49 <=1 
C629: x21+x50 <=1 
C630: x21+x54 <=1 
C631: x21+x55 <=1 
C632: x21+x57-y21_57 <=1 
C633: x21+x58-y21_58 <=1 
C634: x22+x25-y22_25 <=1 
C635: x22+x26 <=1 
C636: x22+x28-y22_28 <=1 
C637: x22+x32 <=1 
C638: x22+x34-y22_34 <=1 
C639: x22+x36 <=1 
C640: x22+x38 <=1 
C641: x22+x43-y22_43 <=1 
C642: x22+x44-y22_44 <=1 
C643: x22+x49-y22_49 <=1 
C644: x22+x52 <=1 
C645: x22+x53 <=1 
C646: x22+x56 <=1 
C647: x22+x57-y22_57 <=1 
C648: x22+x58 <=1 
C649: x22+x59-y22_59 <=1 
C650: x23+x24-y23_24 <=1 
C651: x23+x26 <=1 
C652: x23+x29-y23_29 <=1 
C653: x23+x32 <=1 
C654: x23+x33-y23_33 <=1 
C655: x23+x36 <=1 
C656: x23+x37-y23_37 <=1 
C657: x23+x39 <=1 
C658: x23+x40 <=1 
C659: x23+x41-y23_41 <=1 
C660: x23+x42-y23_42 <=1 
C661: x23+x46 <=1 
C662: x23+x49-y23_49 <=1 
C663: x23+x51 <=1 
C664: x23+x53 <=1 
C665: x23+x55 <=1 
C666: x23+x56-y23_56 <=1 
C667: x23+x59-y23_59 <=1 
C668: x24+x28 <=1 
C669: x24+x29-y24_29 <=1 
C670: x24+x32 <=1 
C671: x24+x33-y24_33 <=1 
C672: x24+x37-y24_37 <=1 
C673: x24+x38 <=1 
C674: x24+x39 <=1 
C675: x24+x41-y24_41 <=1 
C676: x24+x42-y24_42 <=1 
C677: x24+x43 <=1 
C678: x24+x47 <=1 
C679: x24+x48-y24_48 <=1 
C680: x24+x50 <=1 
C681: x24+x51-y24_51 <=1 
C682: x24+x52-y24_52 <=1 
C683: x24+x54 <=1 
C684: x24+x55 <=1 
C685: x24+x56-y24_56 <=1 
C686: x24+x57 <=1 
C687: x24+x59 <=1 
C688: x25+x26 <=1 
C689: x25+x27-y25_27 <=1 
C690: x25+x29 <=1 
C691: x25+x31 <=1 
C692: x25+x33-y25_33 <=1 
C693: x25+x34-y25_34 <=1 
C694: x25+x37-y25_37 <=1 
C695: x25+x38-y25_38 <=1 
C696: x25+x39-y25_39 <=1 
C697: x25+x41 <=1 
C698: x25+x46-y25_46 <=1 
C699: x25+x47 <=1 
C700: x25+x48-y25_48 <=1 
C701: x25+x50-y25_50 <=1 
C702: x25+x51 <=1 
C703: x25+x53 <=1 
C704: x25+x54 <=1 
C705: x25+x55-y25_55 <=1 
C706: x25+x56 <=1 
C707: x25+x58 <=1 
C708: x26+x28-y26_28 <=1 
C709: x26+x29-y26_29 <=1 
C710: x26+x30-y26_30 <=1 
C711: x26+x32 <=1 
C712: x26+x33-y26_33 <=1 
C713: x26+x34 <=1 
C714: x26+x35-y26_35 <=1 
C715: x26+x36-y26_36 <=1 
C716: x26+x38 <=1 
C717: x26+x41 <=1 
C718: x26+x42 <=1 
C719: x26+x44 <=1 
C720: x26+x45 <=1 
C721: x26+x47 <=1 
C722: x26+x48 <=1 
C723: x26+x49-y26_49 <=1 
C724: x26+x51 <=1 
C725: x26+x52-y26_52 <=1 
C726: x26+x53 <=1 
C727: x27+x29 <=1 
C728: x27+x30 <=1 
C729: x27+x33 <=1 
C730: x27+x34-y27_34 <=1 
C731: x27+x35-y27_35 <=1 
C732: x27+x36 <=1 
C733: x27+x37-y27_37 <=1 
C734: x27+x38-y27_38 <=1 
C735: x27+x40 <=1 
C736: x27+x41 <=1 
C737: x27+x42-y27_42 <=1 
C738: x27+x43-y27_43 <=1 
C739: x27+x44-y27_44 <=1 
C740: x27+x45-y27_45 <=1 
C741: x27+x48-y27_48 <=1 
C742: x27+x49 <=1 
C743: x27+x51 <=1 
C744: x27+x54-y27_54 <=1 
C745: x27+x56-y27_56 <=1 
C746: x27+x57-y27_57 <=1 
C747: x27+x58-y27_58 <=1 
C748: x28+x29 <=1 
C749: x28+x30 <=1 
C750: x28+x31 <=1 
C751: x28+x32-y28_32 <=1 
C752: x28+x33-y28_33 <=1 
C753: x28+x34-y28_34 <=1 
C754: x28+x36-y28_36 <=1 
C755: x28+x37-y28_37 <=1 
C756: x28+x38 <=1 
C757: x28+x40-y28_40 <=1 
C758: x28+x41-y28_41 <=1 
C759: x28+x42-y28_42 <=1 
C760: x28+x43 <=1 
C761: x28+x44 <=1 
C762: x28+x46-y28_46 <=1 
C763: x28+x47-y28_47 <=1 
C764: x28+x50 <=1 
C765: x28+x52 <=1 
C766: x28+x54-y28_54 <=1 
C767: x28+x58 <=1 
C768: x28+x59-y28_59 <=1 
C769: x29+x31-y29_31 <=1 
C770: x29+x32-y29_32 <=1 
C771: x29+x33 <=1 
C772: x29+x35-y29_35 <=1 
C773: x29+x37 <=1 
C774: x29+x38-y29_38 <=1 
C775: x29+x40-y29_40 <=1 
C776: x29+x41-y29_41 <=1 
C777: x29+x44 <=1 
C778: x29+x45 <=1 
C779: x29+x47 <=1 
C780: x29+x48-y29_48 <=1 
C781: x29+x49-y29_49 <=1 
C782: x29+x50-y29_50 <=1 
C783: x29+x51-y29_51 <=1 
C784: x29+x52-y29_52 <=1 
C785: x29+x55-y29_55 <=1 
C786: x29+x56 <=1 
C787: x29+x57 <=1 
C788: x29+x58 <=1 
C789: x29+x59 <=1 
C790: x30+x32 <=1 
C791: x30+x33 <=1 
C792: x30+x34-y30_34 <=1 
C793: x30+x35 <=1 
C794: x30+x38-y30_38 <=1 
C795: x30+x40 <=1 
C796: x30+x41 <=1 
C797: x30+x42 <=1 
C798: x30+x44-y30_44 <=1 
C799: x30+x46 <=1 
C800: x30+x48 <=1 
C801: x30+x49-y30_49 <=1 
C802: x30+x50-y30_50 <=1 
C803: x30+x51-y30_51 <=1 
C804: x30+x53 <=1 
C805: x30+x57 <=1 
C806: x30+x58-y30_58 <=1 
C807: x31+x32 <=1 
C808: x31+x33-y31_33 <=1 
C809: x31+x34-y31_34 <=1 
C810: x31+x35-y31_35 <=1 
C811: x31+x36-y31_36 <=1 
C812: x31+x41-y31_41 <=1 
C813: x31+x44 <=1 
C814: x31+x45 <=1 
C815: x31+x47-y31_47 <=1 
C816: x31+x49 <=1 
C817: x31+x50 <=1 
C818: x31+x51-y31_51 <=1 
C819: x31+x52 <=1 
C820: x31+x53 <=1 
C821: x31+x55-y31_55 <=1 
C822: x31+x57 <=1 
C823: x31+x58 <=1 
C824: x32+x35 <=1 
C825: x32+x37 <=1 
C826: x32+x41 <=1 
C827: x32+x42-y32_42 <=1 
C828: x32+x47 <=1 
C829: x32+x48 <=1 
C830: x32+x49 <=1 
C831: x32+x50 <=1 
C832: x32+x51 <=1 
C833: x32+x53-y32_53 <=1 
C834: x32+x54-y32_54 <=1 
C835: x32+x55 <=1 
C836: x32+x56 <=1 
C837: x32+x57-y32_57 <=1 
C838: x32+x58-y32_58 <=1 
C839: x33+x36-y33_36 <=1 
C840: x33+x38-y33_38 <=1 
C841: x33+x40-y33_40 <=1 
C842: x33+x41-y33_41 <=1 
C843: x33+x43-y33_43 <=1 
C844: x33+x44-y33_44 <=1 
C845: x33+x46-y33_46 <=1 
C846: x33+x50 <=1 
C847: x33+x51-y33_51 <=1 
C848: x33+x53 <=1 
C849: x33+x54 <=1 
C850: x33+x56-y33_56 <=1 
C851: x34+x35 <=1 
C852: x34+x37-y34_37 <=1 
C853: x34+x39-y34_39 <=1 
C854: x34+x40 <=1 
C855: x34+x41-y34_41 <=1 
C856: x34+x43 <=1 
C857: x34+x45 <=1 
C858: x34+x46-y34_46 <=1 
C859: x34+x47 <=1 
C860: x34+x48 <=1 
C861: x34+x49 <=1 
C862: x34+x50 <=1 
C863: x34+x51 <=1 
C864: x34+x52-y34_52 <=1 
C865: x34+x54-y34_54 <=1 
C866: x34+x55-y34_55 <=1 
C867: x34+x56-y34_56 <=1 
C868: x35+x38 <=1 
C869: x35+x39 <=1 
C870: x35+x41 <=1 
C871: x35+x42-y35_42 <=1 
C872: x35+x43-y35_43 <=1 
C873: x35+x44-y35_44 <=1 
C874: x35+x46 <=1 
C875: x35+x47 <=1 
C876: x35+x48-y35_48 <=1 
C877: x35+x50 <=1 
C878: x35+x51 <=1 
C879: x35+x52-y35_52 <=1 
C880: x35+x53 <=1 
C881: x35+x54-y35_54 <=1 
C882: x35+x57-y35_57 <=1 
C883: x35+x58-y35_58 <=1 
C884: x35+x59-y35_59 <=1 
C885: x36+x37 <=1 
C886: x36+x38 <=1 
C887: x36+x40-y36_40 <=1 
C888: x36+x41-y36_41 <=1 
C889: x36+x44 <=1 
C890: x36+x45-y36_45 <=1 
C891: x36+x47 <=1 
C892: x36+x48 <=1 
C893: x36+x50 <=1 
C894: x36+x55 <=1 
C895: x36+x57-y36_57 <=1 
C896: x36+x58 <=1 
C897: x36+x59 <=1 
C898: x37+x40-y37_40 <=1 
C899: x37+x42 <=1 
C900: x37+x43 <=1 
C901: x37+x44-y37_44 <=1 
C902: x37+x45-y37_45 <=1 
C903: x37+x46 <=1 
C904: x37+x47-y37_47 <=1 
C905: x37+x48-y37_48 <=1 
C906: x37+x49 <=1 
C907: x37+x50-y37_50 <=1 
C908: x37+x51 <=1 
C909: x37+x52-y37_52 <=1 
C910: x37+x53 <=1 
C911: x37+x56 <=1 
C912: x37+x57-y37_57 <=1 
C913: x37+x58 <=1 
C914: x38+x40-y38_40 <=1 
C915: x38+x41 <=1 
C916: x38+x42-y38_42 <=1 
C917: x38+x44-y38_44 <=1 
C918: x38+x45-y38_45 <=1 
C919: x38+x46-y38_46 <=1 
C920: x38+x48-y38_48 <=1 
C921: x38+x49-y38_49 <=1 
C922: x38+x50 <=1 
C923: x38+x51-y38_51 <=1 
C924: x38+x52-y38_52 <=1 
C925: x38+x55 <=1 
C926: x38+x56 <=1 
C927: x38+x59-y38_59 <=1 
C928: x39+x41 <=1 
C929: x39+x44-y39_44 <=1 
C930: x39+x45 <=1 
C931: x39+x48-y39_48 <=1 
C932: x39+x49 <=1 
C933: x39+x50 <=1 
C934: x39+x51 <=1 
C935: x39+x52-y39_52 <=1 
C936: x39+x54 <=1 
C937: x39+x55-y39_55 <=1 
C938: x39+x56 <=1 
C939: x39+x57 <=1 
C940: x39+x58 <=1 
C941: x40+x41 <=1 
C942: x40+x44-y40_44 <=1 
C943: x40+x45 <=1 
C944: x40+x46-y40_46 <=1 
C945: x40+x48-y40_48 <=1 
C946: x40+x49-y40_49 <=1 
C947: x40+x50-y40_50 <=1 
C948: x40+x52-y40_52 <=1 
C949: x40+x54-y40_54 <=1 
C950: x40+x55-y40_55 <=1 
C951: x40+x56-y40_56 <=1 
C952: x40+x57-y40_57 <=1 
C953: x40+x58-y40_58 <=1 
C954: x41+x42-y41_42 <=1 
C955: x41+x43 <=1 
C956: x41+x45-y41_45 <=1 
C957: x41+x46-y41_46 <=1 
C958: x41+x48-y41_48 <=1 
C959: x41+x50-y41_50 <=1 
C960: x41+x52 <=1 
C961: x41+x53-y41_53 <=1 
C962: x41+x58-y41_58 <=1 
C963: x41+x59 <=1 
C964: x42+x43 <=1 
C965: x42+x48-y42_48 <=1 
C966: x42+x49 <=1 
C967: x42+x50 <=1 
C968: x42+x51 <=1 
C969: x42+x53 <=1 
C970: x42+x54-y42_54 <=1 
C971: x42+x57-y42_57 <=1 
C972: x42+x58-y42_58 <=1 
C973: x42+x59-y42_59 <=1 
C974: x43+x45-y43_45 <=1 
C975: x43+x46-y43_46 <=1 
C976: x43+x47 <=1 
C977: x43+x49 <=1 
C978: x43+x50 <=1 
C979: x43+x51 <=1 
C980: x43+x52 <=1 
C981: x43+x53-y43_53 <=1 
C982: x43+x55 <=1 
C983: x43+x57 <=1 
C984: x43+x58-y43_58 <=1 
C985: x44+x45 <=1 
C986: x44+x46-y44_46 <=1 
C987: x44+x47-y44_47 <=1 
C988: x44+x48-y44_48 <=1 
C989: x44+x49 <=1 
C990: x44+x52-y44_52 <=1 
C991: x44+x54 <=1 
C992: x44+x56 <=1 
C993: x44+x57-y44_57 <=1 
C994: x45+x46 <=1 
C995: x45+x47-y45_47 <=1 
C996: x45+x49 <=1 
C997: x45+x50 <=1 
C998: x45+x51 <=1 
C999: x45+x52-y45_52 <=1 
C1000: x45+x53 <=1 
C1001: x46+x47 <=1 
C1002: x46+x48-y46_48 <=1 
C1003: x46+x53 <=1 
C1004: x46+x56-y46_56 <=1 
C1005: x46+x58-y46_58 <=1 
C1006: x46+x59 <=1 
C1007: x47+x48 <=1 
C1008: x47+x49 <=1 
C1009: x47+x50-y47_50 <=1 
C1010: x47+x51 <=1 
C1011: x47+x52-y47_52 <=1 
C1012: x47+x53 <=1 
C1013: x47+x56-y47_56 <=1 
C1014: x47+x58-y47_58 <=1 
C1015: x47+x59 <=1 
C1016: x48+x49-y48_49 <=1 
C1017: x48+x50 <=1 
C1018: x48+x51-y48_51 <=1 
C1019: x48+x52 <=1 
C1020: x48+x53 <=1 
C1021: x48+x54-y48_54 <=1 
C1022: x48+x55-y48_55 <=1 
C1023: x48+x56-y48_56 <=1 
C1024: x48+x57-y48_57 <=1 
C1025: x48+x58 <=1 
C1026: x49+x51-y49_51 <=1 
C1027: x49+x52 <=1 
C1028: x49+x54 <=1 
C1029: x49+x55 <=1 
C1030: x49+x56-y49_56 <=1 
C1031: x49+x59-y49_59 <=1 
C1032: x50+x52 <=1 
C1033: x50+x56 <=1 
C1034: x50+x57-y50_57 <=1 
C1035: x51+x54 <=1 
C1036: x51+x55-y51_55 <=1 
C1037: x51+x57-y51_57 <=1 
C1038: x52+x57-y52_57 <=1 
C1039: x52+x58 <=1 
C1040: x52+x59 <=1 
C1041: x53+x55-y53_55 <=1 
C1042: x53+x56 <=1 
C1043: x53+x57 <=1 
C1044: x53+x58-y53_58 <=1 
C1045: x53+x59 <=1 
C1046: x54+x55-y54_55 <=1 
C1047: x54+x56 <=1 
C1048: x54+x57 <=1 
C1049: x54+x58 <=1 
C1050: x55+x56-y55_56 <=1 
C1051: x56+x58 <=1 

binary
x0
x1
x2
x3
x4
x5
x6
x7
x8
x9
x10
x11
x12
x13
x14
x15
x16
x17
x18
x19
x20
x21
x22
x23
x24
x25
x26
x27
x28
x29
x30
x31
x32
x33
x34
x35
x36
x37
x38
x39
x40
x41
x42
x43
x44
x45
x46
x47
x48
x49
x50
x51
x52
x53
x54
x55
x56
x57
x58
x59
