problem_generation/data/GISP/train/er_n=60_m=1051_p=0.60_SET2_setparam=100.00_alpha=0.50_520.sol
objective value:                                 1366
x2                                                  1 	(obj:100)
x12                                                 1 	(obj:100)
x17                                                 1 	(obj:100)
x22                                                 1 	(obj:100)
x23                                                 1 	(obj:100)
x25                                                 1 	(obj:100)
x28                                                 1 	(obj:100)
x33                                                 1 	(obj:100)
x35                                                 1 	(obj:100)
x37                                                 1 	(obj:100)
x45                                                 1 	(obj:100)
x48                                                 1 	(obj:100)
x57                                                 1 	(obj:100)
x59                                                 1 	(obj:100)
y22_28                                              1 	(obj:-1)
y17_57                                              1 	(obj:-1)
y25_33                                              1 	(obj:-1)
y2_17                                               1 	(obj:-1)
y35_59                                              1 	(obj:-1)
y2_12                                               1 	(obj:-1)
y17_33                                              1 	(obj:-1)
y28_33                                              1 	(obj:-1)
y28_37                                              1 	(obj:-1)
y12_25                                              1 	(obj:-1)
y17_23                                              1 	(obj:-1)
y12_33                                              1 	(obj:-1)
y23_33                                              1 	(obj:-1)
y12_37                                              1 	(obj:-1)
y23_37                                              1 	(obj:-1)
y37_48                                              1 	(obj:-1)
y22_59                                              1 	(obj:-1)
y37_57                                              1 	(obj:-1)
y12_23                                              1 	(obj:-1)
y48_57                                              1 	(obj:-1)
y25_37                                              1 	(obj:-1)
y2_48                                               1 	(obj:-1)
y2_57                                               1 	(obj:-1)
y22_25                                              1 	(obj:-1)
y28_59                                              1 	(obj:-1)
y35_48                                              1 	(obj:-1)
y35_57                                              1 	(obj:-1)
y17_22                                              1 	(obj:-1)
y2_23                                               1 	(obj:-1)
y17_35                                              1 	(obj:-1)
y23_59                                              1 	(obj:-1)
y22_57                                              1 	(obj:-1)
y37_45                                              1 	(obj:-1)
y25_48                                              1 	(obj:-1)
